\ENCODING=ISO-8859-1
\Problem name: ilog.cplex

Minimize
 obj1: 103438 x1 + 99102 x2 + 104446 x3 + 107269 x4 + 105138 x5 + 100980 x6
       + 93661 x7 + 109313 x8 + 98947 x9 + 94287 x10 + 91910 x11 + 95302 x12
       + 104565 x13 + 94017 x14 + 95092 x15 + 100540 x16 + 108512 x17
       + 100607 x18 + 102188 x19 + 94096 x20 + 107103 x21 + 92845 x22
       + 106843 x23 + 100582 x24 + 91276 x25 + 100512 x26 + 108746 x27
       + 102708 x28 + 104692 x29 + 100154 x30 + 104246 x31 + 90710 x32
       + 107688 x33 + 104243 x34 + 109545 x35 + 97020 x36 + 91368 x37
       + 96544 x38 + 104373 x39 + 92323 x40 + 108493 x41 + 104627 x42
       + 99220 x43 + 102635 x44 + 100826 x45 + 94223 x46 + 105001 x47
       + 96108 x48 + 106190 x49 + 99552 x50 + 100465 x51 + 102973 x52
       + 102736 x53 + 108737 x54 + 109691 x55 + 92370 x56 + 92794 x57
       + 104071 x58 + 99711 x59 + 95767 x60 + 98246 x61 + 92727 x62 + 99086 x63
       + 97169 x64 + 96163 x65 + 107341 x66 + 104390 x67 + 93451 x68
       + 102489 x69 + 104658 x70 + 108573 x71 + 106314 x72 + 109623 x73
       + 100349 x74 + 95380 x75 + 106644 x76 + 93542 x77 + 91139 x78
       + 102296 x79 + 102898 x80 + 102842 x81 + 101653 x82 + 93820 x83
       + 96439 x84 + 101595 x85 + 99839 x86 + 105958 x87 + 108558 x88
       + 105866 x89 + 105200 x90 + 90659 x91 + 96421 x92 + 90328 x93
       + 105236 x94 + 105756 x95 + 99107 x96 + 103641 x97 + 97188 x98
       + 108552 x99 + 99452 x100 + 99052 x101 + 104562 x102 + 99279 x103
       + 92580 x104 + 100170 x105 + 100897 x106 + 104479 x107 + 97819 x108
       + 100936 x109 + 106851 x110 + 109709 x111 + 97117 x112 + 103492 x113
       + 90913 x114 + 106019 x115 + 90119 x116 + 108043 x117 + 98920 x118
       + 105282 x119 + 103756 x120 + 102479 x121 + 98858 x122 + 97087 x123
       + 90945 x124 + 94220 x125 + 109119 x126 + 91365 x127 + 103081 x128
       + 96683 x129 + 109026 x130 + 98482 x131 + 104194 x132 + 98777 x133
       + 103082 x134 + 108433 x135 + 108417 x136 + 102777 x137 + 90994 x138
       + 90769 x139 + 92004 x140 + 104238 x141 + 104115 x142 + 90466 x143
       + 108369 x144 + 98737 x145 + 93266 x146 + 104093 x147 + 90846 x148
       + 97189 x149 + 108131 x150 + 93341 x151 + 97190 x152 + 104784 x153
       + 94968 x154 + 94106 x155 + 96711 x156 + 92527 x157 + 91593 x158
       + 91043 x159 + 103471 x160 + 104905 x161 + 96438 x162 + 109881 x163
       + 97116 x164 + 102373 x165 + 91932 x166 + 92770 x167 + 106670 x168
       + 93182 x169 + 91525 x170 + 105548 x171 + 102034 x172 + 105449 x173
       + 94415 x174 + 100053 x175 + 102931 x176 + 107485 x177 + 92321 x178
       + 99477 x179 + 95705 x180 + 104626 x181 + 98126 x182 + 102012 x183
       + 109848 x184 + 96277 x185 + 104283 x186 + 103003 x187 + 97507 x188
       + 103087 x189 + 104039 x190 + 96560 x191 + 100419 x192 + 95241 x193
       + 97876 x194 + 109923 x195 + 108210 x196 + 108971 x197 + 94068 x198
       + 100925 x199 + 95331 x200 + 93595 x201 + 93594 x202 + 100724 x203
       + 91101 x204 + 109726 x205 + 95943 x206 + 90510 x207 + 106778 x208
       + 96710 x209 + 95377 x210 + 92681 x211 + 109539 x212 + 108588 x213
       + 100523 x214 + 93551 x215 + 104362 x216 + 94837 x217 + 94062 x218
       + 96852 x219 + 106547 x220 + 94585 x221 + 93878 x222 + 95154 x223
       + 99975 x224 + 101214 x225 + 102163 x226 + 99753 x227 + 99193 x228
       + 97985 x229 + 94797 x230 + 108669 x231 + 107018 x232 + 104725 x233
       + 109750 x234 + 97114 x235 + 103612 x236 + 90656 x237 + 100290 x238
       + 105112 x239 + 97806 x240 + 96993 x241 + 95774 x242 + 106669 x243
       + 96345 x244 + 107965 x245 + 95351 x246 + 99840 x247 + 101811 x248
       + 107853 x249 + 96344 x250 + 98788 x251 + 92706 x252 + 101669 x253
       + 90182 x254 + 104817 x255 + 98476 x256 + 90938 x257 + 96985 x258
       + 105014 x259 + 100797 x260 + 96534 x261 + 106008 x262 + 104812 x263
       + 101512 x264 + 108063 x265 + 98431 x266 + 100508 x267 + 92129 x268
       + 91995 x269 + 105864 x270 + 109146 x271 + 105681 x272 + 101243 x273
       + 109201 x274 + 106398 x275 + 98339 x276 + 90007 x277 + 109350 x278
       + 97078 x279 + 100338 x280 + 109413 x281 + 103888 x282 + 97420 x283
       + 93667 x284 + 101880 x285 + 101839 x286 + 103454 x287 + 97365 x288
       + 105091 x289 + 102528 x290 + 95606 x291 + 90405 x292 + 100097 x293
       + 93872 x294 + 106074 x295 + 96811 x296 + 92300 x297 + 90496 x298
       + 92593 x299 + 61976 x300 + 20998 x301 + 21391 x302 + 19473 x303
       + 20551 x304 + 19822 x305 + 19384 x306 + 18953 x307 + 19004 x308
       + 19545 x309 + 20033 x310 + 21471 x311 + 20007 x312 + 20070 x313
       + 19035 x314 + 21063 x315 + 21606 x316 + 18306 x317 + 18224 x318
       + 19222 x319 + 18178 x320 + 18297 x321 + 21582 x322 + 21841 x323
       + 20328 x324 + 20293 x325 + 18659 x326 + 20441 x327 + 19566 x328
       + 20460 x329 + 21228 x330 + 18675 x331 + 18699 x332 + 20317 x333
       + 19345 x334 + 18629 x335 + 21937 x336 + 21725 x337 + 21721 x338
       + 18422 x339 + 20108 x340 + 21418 x341 + 18385 x342 + 20866 x343
       + 20167 x344 + 18506 x345 + 19115 x346 + 20715 x347 + 18335 x348
       + 21344 x349 + 18942 x350 + 21014 x351 + 18760 x352 + 18329 x353
       + 18273 x354 + 19574 x355 + 18470 x356 + 20879 x357 + 19760 x358
       + 20370 x359 + 28169 x360
Subject To
 c1:   x4 + x17 - x27 - x41 - x45  = 0
 c2:   x64 + x77 - x87 - x101 - x105  = 0
 c3:   x124 + x137 - x147 - x161 - x165  = 0
 c4:   x184 + x197 - x207 - x221 - x225  = -1
 c5:   x244 + x257 - x267 - x281 - x285  = 0
 c6:   - x5 - x10 - x12 + x19 + x20 - x24 + x33 - x37 + x39  = 0
 c7:   - x65 - x70 - x72 + x79 + x80 - x84 + x93 - x97 + x99  = 0
 c8:   - x125 - x130 - x132 + x139 + x140 - x144 + x153 - x157 + x159  = 0
 c9:   - x185 - x190 - x192 + x199 + x200 - x204 + x213 - x217 + x219  = 0
 c10:  - x245 - x250 - x252 + x259 + x260 - x264 + x273 - x277 + x279  = 0
 c11:  x6 - x7 + x8 + x13 - x29 + x34 - x47 + x54 + x60  = 1
 c12:  x66 - x67 + x68 + x73 - x89 + x94 - x107 + x114 + x120  = 1
 c13:  x126 - x127 + x128 + x133 - x149 + x154 - x167 + x174 + x180  = 0
 c14:  x186 - x187 + x188 + x193 - x209 + x214 - x227 + x234 + x240  = 0
 c15:  x246 - x247 + x248 + x253 - x269 + x274 - x287 + x294 + x300  = -1
 c16:  - x6 + x9 - x17 - x22 + x30 + x32 + x50 - x53  = 0
 c17:  - x66 + x69 - x77 - x82 + x90 + x92 + x110 - x113  = 0
 c18:  - x126 + x129 - x137 - x142 + x150 + x152 + x170 - x173  = 0
 c19:  - x186 + x189 - x197 - x202 + x210 + x212 + x230 - x233  = 0
 c20:  - x246 + x249 - x257 - x262 + x270 + x272 + x290 - x293  = 0
 c21:  - x3 - x14 - x20 + x26 + x27 + x28 + x37 - x43  = 0
 c22:  - x63 - x74 - x80 + x86 + x87 + x88 + x97 - x103  = 0
 c23:  - x123 - x134 - x140 + x146 + x147 + x148 + x157 - x163  = 0
 c24:  - x183 - x194 - x200 + x206 + x207 + x208 + x217 - x223  = 0
 c25:  - x243 - x254 - x260 + x266 + x267 + x268 + x277 - x283  = 0
 c26:  - x28 - x31 + x49 + x51 + x52 + x53 - x58 + x59  = 0
 c27:  - x88 - x91 + x109 + x111 + x112 + x113 - x118 + x119  = 0
 c28:  - x148 - x151 + x169 + x171 + x172 + x173 - x178 + x179  = 0
 c29:  - x208 - x211 + x229 + x231 + x232 + x233 - x238 + x239  = 0
 c30:  - x268 - x271 + x289 + x291 + x292 + x293 - x298 + x299  = 0
 c31:  - x2 - x4 - x9 + x10 - x23 + x31 - x34 - x38 - x42 + x45 - x52 + x57
        = 0
 c32:  - x62 - x64 - x69 + x70 - x83 + x91 - x94 - x98 - x102 + x105 - x112
       + x117  = 0
 c33:  - x122 - x124 - x129 + x130 - x143 + x151 - x154 - x158 - x162 + x165
       - x172 + x177  = 0
 c34:  - x182 - x184 - x189 + x190 - x203 + x211 - x214 - x218 - x222 + x225
       - x232 + x237  = 1
 c35:  - x242 - x244 - x249 + x250 - x263 + x271 - x274 - x278 - x282 + x285
       - x292 + x297  = 0
 c36:  x5 - x8 + x14 - x15 - x25 + x35 - x40  = 0
 c37:  x65 - x68 + x74 - x75 - x85 + x95 - x100  = 0
 c38:  x125 - x128 + x134 - x135 - x145 + x155 - x160  = 0
 c39:  x185 - x188 + x194 - x195 - x205 + x215 - x220  = 0
 c40:  x245 - x248 + x254 - x255 - x265 + x275 - x280  = 0
 c41:  x1 + x2 - x11 - x13 + x25 - x39 + x58  = 0
 c42:  x61 + x62 - x71 - x73 + x85 - x99 + x118  = 0
 c43:  x121 + x122 - x131 - x133 + x145 - x159 + x178  = 0
 c44:  x181 + x182 - x191 - x193 + x205 - x219 + x238  = 0
 c45:  x241 + x242 - x251 - x253 + x265 - x279 + x298  = 0
 c46:  - x21 + x29 - x32 - x33 - x36 + x38 + x40 - x48 - x57  = 0
 c47:  - x81 + x89 - x92 - x93 - x96 + x98 + x100 - x108 - x117  = 0
 c48:  - x141 + x149 - x152 - x153 - x156 + x158 + x160 - x168 - x177  = 1
 c49:  - x201 + x209 - x212 - x213 - x216 + x218 + x220 - x228 - x237  = 0
 c50:  - x261 + x269 - x272 - x273 - x276 + x278 + x280 - x288 - x297  = 0
 c51:  x3 + x7 + x16 + x18 + x21 + x22 - x30 - x46  = 0
 c52:  x63 + x67 + x76 + x78 + x81 + x82 - x90 - x106  = 0
 c53:  x123 + x127 + x136 + x138 + x141 + x142 - x150 - x166  = 0
 c54:  x183 + x187 + x196 + x198 + x201 + x202 - x210 - x226  = 0
 c55:  x243 + x247 + x256 + x258 + x261 + x262 - x270 - x286  = 0
 c56:  x15 - x35 + x36 - x44 + x46 - x49 - x50 - x55 + x56 - x60  = 0
 c57:  x75 - x95 + x96 - x104 + x106 - x109 - x110 - x115 + x116 - x120  = 0
 c58:  x135 - x155 + x156 - x164 + x166 - x169 - x170 - x175 + x176 - x180
        = -1
 c59:  x195 - x215 + x216 - x224 + x226 - x229 - x230 - x235 + x236 - x240  = 0
 c60:  x255 - x275 + x276 - x284 + x286 - x289 - x290 - x295 + x296 - x300  = 0
 c61:  - x16 - x19 + x41 + x42 + x44 - x54 - x56 - x59  = -1
 c62:  - x76 - x79 + x101 + x102 + x104 - x114 - x116 - x119  = -1
 c63:  - x136 - x139 + x161 + x162 + x164 - x174 - x176 - x179  = 0
 c64:  - x196 - x199 + x221 + x222 + x224 - x234 - x236 - x239  = 0
 c65:  - x256 - x259 + x281 + x282 + x284 - x294 - x296 - x299  = 1
 c66:  x11 + x24 - x26 + x47 + x48  = 0
 c67:  x71 + x84 - x86 + x107 + x108  = 0
 c68:  x131 + x144 - x146 + x167 + x168  = 0
 c69:  x191 + x204 - x206 + x227 + x228  = 0
 c70:  x251 + x264 - x266 + x287 + x288  = 0
 c71:  - x1 + x12 - x18 + x23 + x43 - x51 + x55  = 0
 c72:  - x61 + x72 - x78 + x83 + x103 - x111 + x115  = 0
 c73:  - x121 + x132 - x138 + x143 + x163 - x171 + x175  = 0
 c74:  - x181 + x192 - x198 + x203 + x223 - x231 + x235  = 0
 c75:  - x241 + x252 - x258 + x263 + x283 - x291 + x295  = 0
 c76:  4 x1 + 4 x61 + 4 x121 + 4 x181 + 4 x241 - 11 x301 <= 0
 c77:  4 x2 + 4 x62 + 4 x122 + 4 x182 + 4 x242 - 9 x302 <= 0
 c78:  4 x3 + 4 x63 + 4 x123 + 4 x183 + 4 x243 - 10 x303 <= 0
 c79:  4 x4 + 4 x64 + 4 x124 + 4 x184 + 4 x244 - 10 x304 <= 0
 c80:  4 x5 + 4 x65 + 4 x125 + 4 x185 + 4 x245 - 9 x305 <= 0
 c81:  4 x6 + 4 x66 + 4 x126 + 4 x186 + 4 x246 - 9 x306 <= 0
 c82:  4 x7 + 4 x67 + 4 x127 + 4 x187 + 4 x247 - 11 x307 <= 0
 c83:  4 x8 + 4 x68 + 4 x128 + 4 x188 + 4 x248 - 9 x308 <= 0
 c84:  4 x9 + 4 x69 + 4 x129 + 4 x189 + 4 x249 - 10 x309 <= 0
 c85:  4 x10 + 4 x70 + 4 x130 + 4 x190 + 4 x250 - 10 x310 <= 0
 c86:  4 x11 + 4 x71 + 4 x131 + 4 x191 + 4 x251 - 10 x311 <= 0
 c87:  4 x12 + 4 x72 + 4 x132 + 4 x192 + 4 x252 - 10 x312 <= 0
 c88:  4 x13 + 4 x73 + 4 x133 + 4 x193 + 4 x253 - 9 x313 <= 0
 c89:  4 x14 + 4 x74 + 4 x134 + 4 x194 + 4 x254 - 10 x314 <= 0
 c90:  4 x15 + 4 x75 + 4 x135 + 4 x195 + 4 x255 - 10 x315 <= 0
 c91:  4 x16 + 4 x76 + 4 x136 + 4 x196 + 4 x256 - 9 x316 <= 0
 c92:  4 x17 + 4 x77 + 4 x137 + 4 x197 + 4 x257 - 11 x317 <= 0
 c93:  4 x18 + 4 x78 + 4 x138 + 4 x198 + 4 x258 - 11 x318 <= 0
 c94:  4 x19 + 4 x79 + 4 x139 + 4 x199 + 4 x259 - 9 x319 <= 0
 c95:  4 x20 + 4 x80 + 4 x140 + 4 x200 + 4 x260 - 10 x320 <= 0
 c96:  4 x21 + 4 x81 + 4 x141 + 4 x201 + 4 x261 - 10 x321 <= 0
 c97:  4 x22 + 4 x82 + 4 x142 + 4 x202 + 4 x262 - 11 x322 <= 0
 c98:  4 x23 + 4 x83 + 4 x143 + 4 x203 + 4 x263 - 10 x323 <= 0
 c99:  4 x24 + 4 x84 + 4 x144 + 4 x204 + 4 x264 - 10 x324 <= 0
 c100: 4 x25 + 4 x85 + 4 x145 + 4 x205 + 4 x265 - 10 x325 <= 0
 c101: 4 x26 + 4 x86 + 4 x146 + 4 x206 + 4 x266 - 9 x326 <= 0
 c102: 4 x27 + 4 x87 + 4 x147 + 4 x207 + 4 x267 - 10 x327 <= 0
 c103: 4 x28 + 4 x88 + 4 x148 + 4 x208 + 4 x268 - 9 x328 <= 0
 c104: 4 x29 + 4 x89 + 4 x149 + 4 x209 + 4 x269 - 11 x329 <= 0
 c105: 4 x30 + 4 x90 + 4 x150 + 4 x210 + 4 x270 - 10 x330 <= 0
 c106: 4 x31 + 4 x91 + 4 x151 + 4 x211 + 4 x271 - 10 x331 <= 0
 c107: 4 x32 + 4 x92 + 4 x152 + 4 x212 + 4 x272 - 11 x332 <= 0
 c108: 4 x33 + 4 x93 + 4 x153 + 4 x213 + 4 x273 - 9 x333 <= 0
 c109: 4 x34 + 4 x94 + 4 x154 + 4 x214 + 4 x274 - 10 x334 <= 0
 c110: 4 x35 + 4 x95 + 4 x155 + 4 x215 + 4 x275 - 10 x335 <= 0
 c111: 4 x36 + 4 x96 + 4 x156 + 4 x216 + 4 x276 - 9 x336 <= 0
 c112: 4 x37 + 4 x97 + 4 x157 + 4 x217 + 4 x277 - 10 x337 <= 0
 c113: 4 x38 + 4 x98 + 4 x158 + 4 x218 + 4 x278 - 10 x338 <= 0
 c114: 4 x39 + 4 x99 + 4 x159 + 4 x219 + 4 x279 - 10 x339 <= 0
 c115: 4 x40 + 4 x100 + 4 x160 + 4 x220 + 4 x280 - 10 x340 <= 0
 c116: 4 x41 + 4 x101 + 4 x161 + 4 x221 + 4 x281 - 11 x341 <= 0
 c117: 4 x42 + 4 x102 + 4 x162 + 4 x222 + 4 x282 - 10 x342 <= 0
 c118: 4 x43 + 4 x103 + 4 x163 + 4 x223 + 4 x283 - 9 x343 <= 0
 c119: 4 x44 + 4 x104 + 4 x164 + 4 x224 + 4 x284 - 10 x344 <= 0
 c120: 4 x45 + 4 x105 + 4 x165 + 4 x225 + 4 x285 - 9 x345 <= 0
 c121: 4 x46 + 4 x106 + 4 x166 + 4 x226 + 4 x286 - 9 x346 <= 0
 c122: 4 x47 + 4 x107 + 4 x167 + 4 x227 + 4 x287 - 10 x347 <= 0
 c123: 4 x48 + 4 x108 + 4 x168 + 4 x228 + 4 x288 - 10 x348 <= 0
 c124: 4 x49 + 4 x109 + 4 x169 + 4 x229 + 4 x289 - 10 x349 <= 0
 c125: 4 x50 + 4 x110 + 4 x170 + 4 x230 + 4 x290 - 10 x350 <= 0
 c126: 4 x51 + 4 x111 + 4 x171 + 4 x231 + 4 x291 - 9 x351 <= 0
 c127: 4 x52 + 4 x112 + 4 x172 + 4 x232 + 4 x292 - 10 x352 <= 0
 c128: 4 x53 + 4 x113 + 4 x173 + 4 x233 + 4 x293 - 10 x353 <= 0
 c129: 4 x54 + 4 x114 + 4 x174 + 4 x234 + 4 x294 - 10 x354 <= 0
 c130: 4 x55 + 4 x115 + 4 x175 + 4 x235 + 4 x295 - 10 x355 <= 0
 c131: 4 x56 + 4 x116 + 4 x176 + 4 x236 + 4 x296 - 10 x356 <= 0
 c132: 4 x57 + 4 x117 + 4 x177 + 4 x237 + 4 x297 - 10 x357 <= 0
 c133: 4 x58 + 4 x118 + 4 x178 + 4 x238 + 4 x298 - 10 x358 <= 0
 c134: 4 x59 + 4 x119 + 4 x179 + 4 x239 + 4 x299 - 10 x359 <= 0
 c135: 4 x60 + 4 x120 + 4 x180 + 4 x240 + 4 x300 - 17 x360 <= 0
Bounds
 0 <= x1 <= 1
 0 <= x2 <= 1
 0 <= x3 <= 1
 0 <= x4 <= 1
 0 <= x5 <= 1
 0 <= x6 <= 1
 0 <= x7 <= 1
 0 <= x8 <= 1
 0 <= x9 <= 1
 0 <= x10 <= 1
 0 <= x11 <= 1
 0 <= x12 <= 1
 0 <= x13 <= 1
 0 <= x14 <= 1
 0 <= x15 <= 1
 0 <= x16 <= 1
 0 <= x17 <= 1
 0 <= x18 <= 1
 0 <= x19 <= 1
 0 <= x20 <= 1
 0 <= x21 <= 1
 0 <= x22 <= 1
 0 <= x23 <= 1
 0 <= x24 <= 1
 0 <= x25 <= 1
 0 <= x26 <= 1
 0 <= x27 <= 1
 0 <= x28 <= 1
 0 <= x29 <= 1
 0 <= x30 <= 1
 0 <= x31 <= 1
 0 <= x32 <= 1
 0 <= x33 <= 1
 0 <= x34 <= 1
 0 <= x35 <= 1
 0 <= x36 <= 1
 0 <= x37 <= 1
 0 <= x38 <= 1
 0 <= x39 <= 1
 0 <= x40 <= 1
 0 <= x41 <= 1
 0 <= x42 <= 1
 0 <= x43 <= 1
 0 <= x44 <= 1
 0 <= x45 <= 1
 0 <= x46 <= 1
 0 <= x47 <= 1
 0 <= x48 <= 1
 0 <= x49 <= 1
 0 <= x50 <= 1
 0 <= x51 <= 1
 0 <= x52 <= 1
 0 <= x53 <= 1
 0 <= x54 <= 1
 0 <= x55 <= 1
 0 <= x56 <= 1
 0 <= x57 <= 1
 0 <= x58 <= 1
 0 <= x59 <= 1
 0 <= x60 <= 1
 0 <= x61 <= 1
 0 <= x62 <= 1
 0 <= x63 <= 1
 0 <= x64 <= 1
 0 <= x65 <= 1
 0 <= x66 <= 1
 0 <= x67 <= 1
 0 <= x68 <= 1
 0 <= x69 <= 1
 0 <= x70 <= 1
 0 <= x71 <= 1
 0 <= x72 <= 1
 0 <= x73 <= 1
 0 <= x74 <= 1
 0 <= x75 <= 1
 0 <= x76 <= 1
 0 <= x77 <= 1
 0 <= x78 <= 1
 0 <= x79 <= 1
 0 <= x80 <= 1
 0 <= x81 <= 1
 0 <= x82 <= 1
 0 <= x83 <= 1
 0 <= x84 <= 1
 0 <= x85 <= 1
 0 <= x86 <= 1
 0 <= x87 <= 1
 0 <= x88 <= 1
 0 <= x89 <= 1
 0 <= x90 <= 1
 0 <= x91 <= 1
 0 <= x92 <= 1
 0 <= x93 <= 1
 0 <= x94 <= 1
 0 <= x95 <= 1
 0 <= x96 <= 1
 0 <= x97 <= 1
 0 <= x98 <= 1
 0 <= x99 <= 1
 0 <= x100 <= 1
 0 <= x101 <= 1
 0 <= x102 <= 1
 0 <= x103 <= 1
 0 <= x104 <= 1
 0 <= x105 <= 1
 0 <= x106 <= 1
 0 <= x107 <= 1
 0 <= x108 <= 1
 0 <= x109 <= 1
 0 <= x110 <= 1
 0 <= x111 <= 1
 0 <= x112 <= 1
 0 <= x113 <= 1
 0 <= x114 <= 1
 0 <= x115 <= 1
 0 <= x116 <= 1
 0 <= x117 <= 1
 0 <= x118 <= 1
 0 <= x119 <= 1
 0 <= x120 <= 1
 0 <= x121 <= 1
 0 <= x122 <= 1
 0 <= x123 <= 1
 0 <= x124 <= 1
 0 <= x125 <= 1
 0 <= x126 <= 1
 0 <= x127 <= 1
 0 <= x128 <= 1
 0 <= x129 <= 1
 0 <= x130 <= 1
 0 <= x131 <= 1
 0 <= x132 <= 1
 0 <= x133 <= 1
 0 <= x134 <= 1
 0 <= x135 <= 1
 0 <= x136 <= 1
 0 <= x137 <= 1
 0 <= x138 <= 1
 0 <= x139 <= 1
 0 <= x140 <= 1
 0 <= x141 <= 1
 0 <= x142 <= 1
 0 <= x143 <= 1
 0 <= x144 <= 1
 0 <= x145 <= 1
 0 <= x146 <= 1
 0 <= x147 <= 1
 0 <= x148 <= 1
 0 <= x149 <= 1
 0 <= x150 <= 1
 0 <= x151 <= 1
 0 <= x152 <= 1
 0 <= x153 <= 1
 0 <= x154 <= 1
 0 <= x155 <= 1
 0 <= x156 <= 1
 0 <= x157 <= 1
 0 <= x158 <= 1
 0 <= x159 <= 1
 0 <= x160 <= 1
 0 <= x161 <= 1
 0 <= x162 <= 1
 0 <= x163 <= 1
 0 <= x164 <= 1
 0 <= x165 <= 1
 0 <= x166 <= 1
 0 <= x167 <= 1
 0 <= x168 <= 1
 0 <= x169 <= 1
 0 <= x170 <= 1
 0 <= x171 <= 1
 0 <= x172 <= 1
 0 <= x173 <= 1
 0 <= x174 <= 1
 0 <= x175 <= 1
 0 <= x176 <= 1
 0 <= x177 <= 1
 0 <= x178 <= 1
 0 <= x179 <= 1
 0 <= x180 <= 1
 0 <= x181 <= 1
 0 <= x182 <= 1
 0 <= x183 <= 1
 0 <= x184 <= 1
 0 <= x185 <= 1
 0 <= x186 <= 1
 0 <= x187 <= 1
 0 <= x188 <= 1
 0 <= x189 <= 1
 0 <= x190 <= 1
 0 <= x191 <= 1
 0 <= x192 <= 1
 0 <= x193 <= 1
 0 <= x194 <= 1
 0 <= x195 <= 1
 0 <= x196 <= 1
 0 <= x197 <= 1
 0 <= x198 <= 1
 0 <= x199 <= 1
 0 <= x200 <= 1
 0 <= x201 <= 1
 0 <= x202 <= 1
 0 <= x203 <= 1
 0 <= x204 <= 1
 0 <= x205 <= 1
 0 <= x206 <= 1
 0 <= x207 <= 1
 0 <= x208 <= 1
 0 <= x209 <= 1
 0 <= x210 <= 1
 0 <= x211 <= 1
 0 <= x212 <= 1
 0 <= x213 <= 1
 0 <= x214 <= 1
 0 <= x215 <= 1
 0 <= x216 <= 1
 0 <= x217 <= 1
 0 <= x218 <= 1
 0 <= x219 <= 1
 0 <= x220 <= 1
 0 <= x221 <= 1
 0 <= x222 <= 1
 0 <= x223 <= 1
 0 <= x224 <= 1
 0 <= x225 <= 1
 0 <= x226 <= 1
 0 <= x227 <= 1
 0 <= x228 <= 1
 0 <= x229 <= 1
 0 <= x230 <= 1
 0 <= x231 <= 1
 0 <= x232 <= 1
 0 <= x233 <= 1
 0 <= x234 <= 1
 0 <= x235 <= 1
 0 <= x236 <= 1
 0 <= x237 <= 1
 0 <= x238 <= 1
 0 <= x239 <= 1
 0 <= x240 <= 1
 0 <= x241 <= 1
 0 <= x242 <= 1
 0 <= x243 <= 1
 0 <= x244 <= 1
 0 <= x245 <= 1
 0 <= x246 <= 1
 0 <= x247 <= 1
 0 <= x248 <= 1
 0 <= x249 <= 1
 0 <= x250 <= 1
 0 <= x251 <= 1
 0 <= x252 <= 1
 0 <= x253 <= 1
 0 <= x254 <= 1
 0 <= x255 <= 1
 0 <= x256 <= 1
 0 <= x257 <= 1
 0 <= x258 <= 1
 0 <= x259 <= 1
 0 <= x260 <= 1
 0 <= x261 <= 1
 0 <= x262 <= 1
 0 <= x263 <= 1
 0 <= x264 <= 1
 0 <= x265 <= 1
 0 <= x266 <= 1
 0 <= x267 <= 1
 0 <= x268 <= 1
 0 <= x269 <= 1
 0 <= x270 <= 1
 0 <= x271 <= 1
 0 <= x272 <= 1
 0 <= x273 <= 1
 0 <= x274 <= 1
 0 <= x275 <= 1
 0 <= x276 <= 1
 0 <= x277 <= 1
 0 <= x278 <= 1
 0 <= x279 <= 1
 0 <= x280 <= 1
 0 <= x281 <= 1
 0 <= x282 <= 1
 0 <= x283 <= 1
 0 <= x284 <= 1
 0 <= x285 <= 1
 0 <= x286 <= 1
 0 <= x287 <= 1
 0 <= x288 <= 1
 0 <= x289 <= 1
 0 <= x290 <= 1
 0 <= x291 <= 1
 0 <= x292 <= 1
 0 <= x293 <= 1
 0 <= x294 <= 1
 0 <= x295 <= 1
 0 <= x296 <= 1
 0 <= x297 <= 1
 0 <= x298 <= 1
 0 <= x299 <= 1
 0 <= x300 <= 1
 0 <= x301 <= 1
 0 <= x302 <= 1
 0 <= x303 <= 1
 0 <= x304 <= 1
 0 <= x305 <= 1
 0 <= x306 <= 1
 0 <= x307 <= 1
 0 <= x308 <= 1
 0 <= x309 <= 1
 0 <= x310 <= 1
 0 <= x311 <= 1
 0 <= x312 <= 1
 0 <= x313 <= 1
 0 <= x314 <= 1
 0 <= x315 <= 1
 0 <= x316 <= 1
 0 <= x317 <= 1
 0 <= x318 <= 1
 0 <= x319 <= 1
 0 <= x320 <= 1
 0 <= x321 <= 1
 0 <= x322 <= 1
 0 <= x323 <= 1
 0 <= x324 <= 1
 0 <= x325 <= 1
 0 <= x326 <= 1
 0 <= x327 <= 1
 0 <= x328 <= 1
 0 <= x329 <= 1
 0 <= x330 <= 1
 0 <= x331 <= 1
 0 <= x332 <= 1
 0 <= x333 <= 1
 0 <= x334 <= 1
 0 <= x335 <= 1
 0 <= x336 <= 1
 0 <= x337 <= 1
 0 <= x338 <= 1
 0 <= x339 <= 1
 0 <= x340 <= 1
 0 <= x341 <= 1
 0 <= x342 <= 1
 0 <= x343 <= 1
 0 <= x344 <= 1
 0 <= x345 <= 1
 0 <= x346 <= 1
 0 <= x347 <= 1
 0 <= x348 <= 1
 0 <= x349 <= 1
 0 <= x350 <= 1
 0 <= x351 <= 1
 0 <= x352 <= 1
 0 <= x353 <= 1
 0 <= x354 <= 1
 0 <= x355 <= 1
 0 <= x356 <= 1
 0 <= x357 <= 1
 0 <= x358 <= 1
 0 <= x359 <= 1
 0 <= x360 <= 1
Binaries
 x301  x302  x303  x304  x305  x306  x307  x308  x309  x310  x311  x312  x313 
 x314  x315  x316  x317  x318  x319  x320  x321  x322  x323  x324  x325  x326 
 x327  x328  x329  x330  x331  x332  x333  x334  x335  x336  x337  x338  x339 
 x340  x341  x342  x343  x344  x345  x346  x347  x348  x349  x350  x351  x352 
 x353  x354  x355  x356  x357  x358  x359  x360 
End
